p cnf 18 12
-1 7 -2 17 0 
-3 17 0 
-4 -5 9 11 14 17 0 
-6 -7 1 17 0 
-8 -4 -9 5 11 14 -10 12 18 0 
-11 5 9 14 -12 10 17 0 
-13 -4 17 0 
-14 5 9 11 18 0 
-4 17 0 
-5 9 11 14 17 0 
-15 18 0 
-8 -16 -10 12 17 0 
